FEATURES = {apiClient,collections,publicApiDocumentation,privateApiDocumentation,personalWorkspaces,teamWorkspaces,publicWorkspaces,privateWorkspaces,partnerWorkspaces,postmanApi,thirdPartyIntegrations,customDomains,collectionRunner,localPerformanceTesting,monitoringCalls,mockServersCalls,apiGovernance,privateApiNetwork,apiBuilder,nativeGitSupport,rolesAndPermissions,singleSignOn,userProvisioning,userGroups,domainCapture,collectionRecovery,history,auditLogs,secretScanner,superAdminRole,deploymentControl,reportingAndAnalytics,support,customerSuccess,paymentOptions,integrationWithCiCdTools,postmanFlows,flowsRoleManagement,postbot};
USAGE_LIMITS = {callsToPostmanApi,numberOfIntegrations,collectionViewers,customDomainsLimit,localCollectionRunnerLimit,localPerformanceTestingUserLimit,localPerformanceTestingRunsLimit,monitoringCallsLimit,mockServersCallsLimit,collectionRecoveryLimit,historyDepth,flowSteps,flowsPayloadSize};
PLANS = {BASIC,PROFESSIONAL,ENTERPRISE_ESSENTIALS,ENTERPRISE_ULTIMATE};
ADDONS = {postmanForInternalApiManagement,postmanForApiTestAutomation,monitoringPayAsYouGo,monitoringMonthly,mockServersPayAsYouGo,mockServersMonthly,customDomains,postmanFlowsBasic,postmanFlowsProfessional,postbot};

plans_prices = [19.0,39.0,49.0,0.0];
addons_prices = [49.0,49.0,0.75,20.0,0.75,20.0,10.0,15.0,25.0,9.0];

plans_features = array2d(PLANS, FEATURES, [
    % BASIC
    1,1,1,1,1,1,1,0,0,1,1,1,1,1,1,1,0,0,0,"",0,0,0,0,0,1,1,0,"Public Workspaces and Public Documentation",0,0,0,"Email",0,["CARD"],0,0,0,
    % PROFESSIONAL
    1,1,1,1,1,1,1,1,0,1,1,1,1,1,1,1,0,0,0,"Google Workspaces",1,1,0,0,0,1,1,1,"Public Workspaces and Public Documentation",0,1,1,"Email",0,["CARD"],0,0,0,
    % ENTERPRISE_ESSENTIALS
    1,1,1,1,1,1,1,1,0,1,1,1,1,0,"Cloud only",0,1,"SAML, SSO Providers (Okta, OneLogin, AD FS, Azure AD)",1,1,1,1,1,1,1,1,"Public Workspaces and Public Documentation",1,1,1,"Priority Email (SLA: 1 business day)",0,["CARD","ACH","WIRE_TRANSFER","INVOICE"],0,0,0,
    % ENTERPRISE_ULTIMATE
    1,1,1,1,1,1,1,1,1,1,1,1,1,0,"Cloud + On-prem",1,"SAML, SSO Providers (Okta, OneLogin, AD FS, Azure AD)",1,1,1,1,1,1,1,1,"Public Workspaces and Public Documentation",1,1,1,"Priority Email (SLA: 1 business day)",1,["CARD","ACH","WIRE_TRANSFER","INVOICE"],0,0,0
]);
plans_usage_limits = array2d(PLANS, USAGE_LIMITS, [
    % BASIC
    10000,10,10,1,25,100,25,1000,1000,30,1,0,0,
    % PROFESSIONAL
    100000,50,25,5,250,500,250,10000,10000,90,1,0,0,
    % ENTERPRISE_ESSENTIALS
    1000000,50,0,25,250,0,0,10000,10000,90,14,0,0,
    % ENTERPRISE_ULTIMATE
    1000000,100,0,25,.inf,0,0,100000,100000,90,14,0,0
]);

linked_features = array2d(USAGE_LIMITS, FEATURES, [
    % callsToPostmanApi
    1,0,0,0,0,0,0,0,0,1,0,0,0,0,0,0,0,0,0,0,0,0,0,0,0,0,0,0,0,0,0,0,0,0,0,0,0,0,0,0,0,0,
    % numberOfIntegrations
    0,0,0,0,0,0,0,0,0,0,1,0,0,0,0,0,0,0,0,0,0,0,0,0,0,0,0,0,0,0,0,0,0,0,0,0,0,0,0,0,0,0,
    % collectionViewers
    0,1,0,0,0,0,0,0,0,0,0,0,0,0,0,0,0,0,0,0,0,0,0,0,0,0,0,0,0,0,0,0,0,0,0,0,0,0,0,0,0,0,
    % customDomainsLimit
    0,0,0,0,0,0,0,0,0,0,0,1,0,0,0,0,0,0,0,0,0,0,0,0,0,0,0,0,0,0,0,0,0,0,0,0,0,0,0,0,0,0,
    % localCollectionRunnerLimit
    0,0,0,0,0,0,0,0,0,0,0,0,1,0,0,0,0,0,0,0,0,0,0,0,0,0,0,0,0,0,0,0,0,0,0,0,0,0,0,0,0,0,
    % localPerformanceTestingUserLimit
    0,0,0,0,0,0,0,0,0,0,0,0,0,1,0,0,0,0,0,0,0,0,0,0,0,0,0,0,0,0,0,0,0,0,0,0,0,0,0,0,0,0,
    % localPerformanceTestingRunsLimit
    0,0,0,0,0,0,0,0,0,0,0,0,0,1,0,0,0,0,0,0,0,0,0,0,0,0,0,0,0,0,0,0,0,0,0,0,0,0,0,0,0,0,
    % monitoringCallsLimit
    0,0,1,0,0,0,0,0,0,0,0,0,0,0,1,0,0,0,0,0,0,0,0,0,0,0,0,0,0,0,0,0,0,0,0,0,0,0,0,0,0,0,
    % mockServersCallsLimit
    0,0,0,0,0,0,0,0,0,0,0,0,0,0,0,1,0,0,0,0,0,0,0,0,0,0,0,0,0,0,0,0,0,0,0,0,0,0,0,0,0,0,
    % collectionRecoveryLimit
    0,0,0,0,0,0,0,0,0,0,0,0,0,0,0,0,0,0,0,0,0,0,0,0,1,0,0,0,0,0,0,0,0,0,0,0,0,0,0,0,0,0,
    % historyDepth
    0,0,0,0,0,0,0,0,0,0,0,0,0,0,0,0,0,0,0,0,0,0,0,0,0,1,0,0,0,0,0,0,0,0,0,0,0,0,0,0,0,0,
    % flowSteps
    0,0,0,0,0,0,0,0,0,0,0,0,0,0,0,0,0,0,0,0,0,0,0,0,0,0,1,0,0,0,0,0,0,0,0,0,0,0,0,0,0,0,
    % flowsPayloadSize
    0,0,0,0,0,0,0,0,0,0,0,0,0,0,0,0,0,0,0,0,0,0,0,0,0,0,0,1,0,0,0,0,0,0,0,0,0,0,0,0,0,0
]);

addons_features = array2d(ADDONS, FEATURES, [
    % postmanForInternalApiManagement
    0,0,0,0,0,0,0,0,0,0,0,0,0,0,0,0,1,1,1,0,0,0,0,0,0,0,0,0,0,0,0,0,0,0,0,0,0,0,0,0,0,0,
    % postmanForApiTestAutomation
    0,0,0,0,0,0,0,0,0,0,0,0,0,0,0,0,0,0,0,0,0,0,0,0,0,0,0,0,0,0,0,0,0,0,0,0,0,0,0,0,0,0,
    % monitoringPayAsYouGo
    0,0,0,0,0,0,0,0,0,0,0,0,0,0,1,0,0,0,0,0,0,0,0,0,0,0,0,0,0,0,0,0,0,0,0,0,0,0,0,0,0,0,
    % monitoringMonthly
    0,0,0,0,0,0,0,0,0,0,0,0,0,0,1,0,0,0,0,0,0,0,0,0,0,0,0,0,0,0,0,0,0,0,0,0,0,0,0,0,0,0,
    % mockServersPayAsYouGo
    0,0,0,0,0,0,0,0,0,0,0,0,0,0,0,1,0,0,0,0,0,0,0,0,0,0,0,0,0,0,0,0,0,0,0,0,0,0,0,0,0,0,
    % mockServersMonthly
    0,0,0,0,0,0,0,0,0,0,0,0,0,0,0,1,0,0,0,0,0,0,0,0,0,0,0,0,0,0,0,0,0,0,0,0,0,0,0,0,0,0,
    % customDomains
    0,0,0,0,0,0,0,0,0,0,0,1,0,0,0,0,0,0,0,0,0,0,0,0,0,0,0,0,0,0,0,0,0,0,0,0,0,0,0,0,0,0,
    % postmanFlowsBasic
    0,0,0,0,0,0,0,0,0,0,0,0,0,0,0,0,0,0,0,0,0,0,0,0,0,0,1,0,0,0,0,0,0,0,0,0,0,0,0,0,0,0,
    % postmanFlowsProfessional
    0,0,0,0,0,0,0,0,0,0,0,0,0,0,0,0,0,0,0,0,0,0,0,0,0,0,1,0,0,0,0,0,0,0,0,0,0,0,0,0,0,0,
    % postbot
    0,0,0,0,0,0,0,0,0,0,0,0,0,0,0,0,0,0,0,0,0,0,0,0,0,0,0,0,1,0,0,0,0,0,0,0,0,0,0,0,0,0
]);
addons_usage_limits = array2d(ADDONS, USAGE_LIMITS, [
    % postmanForInternalApiManagement
    0,0,0,0,0,0,0,0,0,0,0,0,
    % postmanForApiTestAutomation
    0,0,0,0,.inf,0,0,0,0,0,0,0,
    % monitoringPayAsYouGo
    0,0,0,0,0,0,0,1000,0,0,0,0,
    % monitoringMonthly
    0,0,0,0,0,0,0,50000,0,0,0,0,
    % mockServersPayAsYouGo
    0,0,0,0,0,0,0,0,1000,0,0,0,
    % mockServersMonthly
    0,0,0,0,0,0,0,0,50000,0,0,0,
    % customDomains
    0,0,0,1,0,0,0,0,0,0,0,0,
    % postmanFlowsBasic
    0,0,0,0,0,0,0,0,0,0,25000,1,
    % postmanFlowsProfessional
    0,0,0,0,0,0,0,0,0,0,100000,5,
    % postbot
    0,0,0,0,0,0,0,0,0,0,0,0
]);
addons_usage_limits_extensions = array2d(ADDONS, USAGE_LIMITS, [
    % postmanForInternalApiManagement
    0,0,0,0,0,0,0,0,0,0,0,0,
    % postmanForApiTestAutomation
    0,0,0,0,0,0,0,0,0,0,0,0,
    % monitoringPayAsYouGo
    0,0,0,0,0,0,0,1000,0,0,0,0,
    % monitoringMonthly
    0,0,0,0,0,0,0,50000,0,0,0,0,
    % mockServersPayAsYouGo
    0,0,0,0,0,0,0,0,1000,0,0,0,
    % mockServersMonthly
    0,0,0,0,0,0,0,0,50000,0,0,0,
    % customDomains
    0,0,0,1,0,0,0,0,0,0,0,0,
    % postmanFlowsBasic
    0,0,0,0,0,0,0,0,0,0,0,0,
    % postmanFlowsProfessional
    0,0,0,0,0,0,0,0,0,0,0,0,
    % postbot
    0,0,0,0,0,0,0,0,0,0,0,0
]);
addons_available_for = array2d(ADDONS, PLANS, [
    % postmanForInternalApiManagement
    0,0,1,1,
    % postmanForApiTestAutomation
    0,0,1,1,
    % monitoringPayAsYouGo
    1,1,1,1,
    % monitoringMonthly
    1,1,1,1,
    % mockServersPayAsYouGo
    1,1,1,1,
    % mockServersMonthly
    1,1,1,1,
    % customDomains
    1,1,1,1,
    % postmanFlowsBasic
    1,1,1,1,
    % postmanFlowsProfessional
    1,1,1,1,
    % postbot
    1,1,1,1
]);

addons_depends_on = array2d(ADDONS, ADDONS, [
    % postmanForInternalApiManagement
    0,0,0,0,0,0,0,0,0,0,
    % postmanForApiTestAutomation
    0,0,0,0,0,0,0,0,0,0,
    % monitoringPayAsYouGo
    0,0,0,0,0,0,0,0,0,0,
    % monitoringMonthly
    0,0,0,0,0,0,0,0,0,0,
    % mockServersPayAsYouGo
    0,0,0,0,0,0,0,0,0,0,
    % mockServersMonthly
    0,0,0,0,0,0,0,0,0,0,
    % customDomains
    0,0,0,0,0,0,0,0,0,0,
    % postmanFlowsBasic
    0,0,0,0,0,0,0,0,0,0,
    % postmanFlowsProfessional
    0,0,0,0,0,0,0,0,0,0,
    % postbot
    0,0,0,0,0,0,0,0,0,0
]);